
Gurobi 11.0.1 (win64) logging started Mon Apr  1 12:50:35 2024

Set parameter LogFile to value "C:\Projetos\Job_Rotation_Algorithms\Outputs\GurobiLogs\gurobi_log-output-71_wee-c27-CostaMirallesModel-NoExtraConstraint-2.log"
Gurobi Optimizer version 11.0.1 build v11.0.1rc0 (win64 - Windows 10.0 (19045.2))

CPU model: 11th Gen Intel(R) Core(TM) i7-1165G7 @ 2.80GHz, instruction set [SSE2|AVX|AVX2|AVX512]
Thread count: 4 physical cores, 8 logical processors, using up to 1 threads


Gurobi 11.0.1 (win64) logging started Mon Apr  1 21:38:22 2024

Set parameter LogFile to value "C:\Projetos\Job_Rotation_Algorithms\Outputs\GurobiLogs\gurobi_log-output-71_wee-c27-CostaMirallesModel-NoExtraConstraint-2.log"
Gurobi Optimizer version 11.0.1 build v11.0.1rc0 (win64 - Windows 10.0 (19045.2))

CPU model: 11th Gen Intel(R) Core(TM) i7-1165G7 @ 2.80GHz, instruction set [SSE2|AVX|AVX2|AVX512]
Thread count: 4 physical cores, 8 logical processors, using up to 1 threads


Gurobi 11.0.1 (win64) logging started Thu Apr  4 23:35:44 2024

Set parameter LogFile to value "C:\Projetos\Job_Rotation_Algorithms\Outputs\GurobiLogs\gurobi_log-output-71_wee-c27-CostaMirallesModel-NoExtraConstraint-2.log"
Gurobi Optimizer version 11.0.1 build v11.0.1rc0 (win64 - Windows 10.0 (19045.2))

CPU model: 11th Gen Intel(R) Core(TM) i7-1165G7 @ 2.80GHz, instruction set [SSE2|AVX|AVX2|AVX512]
Thread count: 4 physical cores, 8 logical processors, using up to 1 threads


Gurobi 11.0.1 (win64) logging started Sat Apr  6 13:06:11 2024

Set parameter LogFile to value "C:\Projetos\Job_Rotation_Algorithms\Outputs\GurobiLogs\gurobi_log-output-71_wee-c27-CostaMirallesModel-NoExtraConstraint-2.log"
Gurobi Optimizer version 11.0.1 build v11.0.1rc0 (win64 - Windows 10.0 (19045.2))

CPU model: 11th Gen Intel(R) Core(TM) i7-1165G7 @ 2.80GHz, instruction set [SSE2|AVX|AVX2|AVX512]
Thread count: 4 physical cores, 8 logical processors, using up to 1 threads


Gurobi 11.0.1 (win64) logging started Sun Apr  7 02:38:08 2024

Set parameter LogFile to value "C:\Projetos\Job_Rotation_Algorithms\Outputs\GurobiLogs\gurobi_log-output-71_wee-c27-CostaMirallesModel-NoExtraConstraint-2.log"
Gurobi Optimizer version 11.0.1 build v11.0.1rc0 (win64 - Windows 10.0 (19045.2))

CPU model: 11th Gen Intel(R) Core(TM) i7-1165G7 @ 2.80GHz, instruction set [SSE2|AVX|AVX2|AVX512]
Thread count: 4 physical cores, 8 logical processors, using up to 1 threads


Gurobi 11.0.1 (win64) logging started Sun Apr  7 09:51:07 2024

Set parameter LogFile to value "C:\Projetos\Job_Rotation_Algorithms\Outputs\GurobiLogs\gurobi_log-output-71_wee-c27-CostaMirallesModel-NoExtraConstraint-2.log"
Gurobi Optimizer version 11.0.1 build v11.0.1rc0 (win64 - Windows 10.0 (19045.2))

CPU model: 11th Gen Intel(R) Core(TM) i7-1165G7 @ 2.80GHz, instruction set [SSE2|AVX|AVX2|AVX512]
Thread count: 4 physical cores, 8 logical processors, using up to 1 threads


Gurobi 11.0.1 (win64) logging started Wed Apr 10 17:40:01 2024

Set parameter LogFile to value "C:\Projetos\Job_Rotation_Algorithms\Outputs\GurobiLogs\gurobi_log-output-71_wee-c27-CostaMirallesModel-NoExtraConstraint-2.log"
Gurobi Optimizer version 11.0.1 build v11.0.1rc0 (win64 - Windows 10.0 (19045.2))

CPU model: 11th Gen Intel(R) Core(TM) i7-1165G7 @ 2.80GHz, instruction set [SSE2|AVX|AVX2|AVX512]
Thread count: 4 physical cores, 8 logical processors, using up to 1 threads


Gurobi 11.0.1 (win64) logging started Thu Apr 11 01:44:47 2024

Set parameter LogFile to value "C:\Projetos\Job_Rotation_Algorithms\Outputs\GurobiLogs\gurobi_log-output-71_wee-c27-CostaMirallesModel-NoExtraConstraint-2.log"
Gurobi Optimizer version 11.0.1 build v11.0.1rc0 (win64 - Windows 10.0 (19045.2))

CPU model: 11th Gen Intel(R) Core(TM) i7-1165G7 @ 2.80GHz, instruction set [SSE2|AVX|AVX2|AVX512]
Thread count: 4 physical cores, 8 logical processors, using up to 1 threads


Gurobi 11.0.1 (win64) logging started Sun Apr 21 03:01:43 2024

Set parameter LogFile to value "C:\Projetos\Job_Rotation_Algorithms\Outputs\GurobiLogs\gurobi_log-output-71_wee-c27-CostaMirallesModel-NoExtraConstraint-2.log"
Gurobi Optimizer version 11.0.1 build v11.0.1rc0 (win64 - Windows 10.0 (19045.2))

CPU model: 11th Gen Intel(R) Core(TM) i7-1165G7 @ 2.80GHz, instruction set [SSE2|AVX|AVX2|AVX512]
Thread count: 4 physical cores, 8 logical processors, using up to 1 threads


Gurobi 11.0.1 (win64) logging started Fri Apr 26 07:43:40 2024

Set parameter LogFile to value "C:\Projetos\Job_Rotation_Algorithms\Outputs\GurobiLogs\gurobi_log-output-71_wee-c27-CostaMirallesModel-NoExtraConstraint-2.log"
Gurobi Optimizer version 11.0.1 build v11.0.1rc0 (win64 - Windows 10.0 (19045.2))

CPU model: 11th Gen Intel(R) Core(TM) i7-1165G7 @ 2.80GHz, instruction set [SSE2|AVX|AVX2|AVX512]
Thread count: 4 physical cores, 8 logical processors, using up to 1 threads


Gurobi 11.0.1 (win64) logging started Sat Apr 27 04:34:50 2024

Set parameter LogFile to value "C:\Projetos\Job_Rotation_Algorithms\Outputs\GurobiLogs\gurobi_log-output-71_wee-c27-CostaMirallesModel-NoExtraConstraint-2.log"
Gurobi Optimizer version 11.0.1 build v11.0.1rc0 (win64 - Windows 10.0 (19045.2))

CPU model: 11th Gen Intel(R) Core(TM) i7-1165G7 @ 2.80GHz, instruction set [SSE2|AVX|AVX2|AVX512]
Thread count: 4 physical cores, 8 logical processors, using up to 1 threads


Gurobi 11.0.1 (win64) logging started Sat Apr 27 14:52:57 2024

Set parameter LogFile to value "C:\Projetos\Job_Rotation_Algorithms\Outputs\GurobiLogs\gurobi_log-output-71_wee-c27-CostaMirallesModel-NoExtraConstraint-2.log"
Gurobi Optimizer version 11.0.1 build v11.0.1rc0 (win64 - Windows 10.0 (19045.2))

CPU model: 11th Gen Intel(R) Core(TM) i7-1165G7 @ 2.80GHz, instruction set [SSE2|AVX|AVX2|AVX512]
Thread count: 4 physical cores, 8 logical processors, using up to 1 threads


Gurobi 11.0.1 (win64) logging started Sun May  5 04:22:31 2024

Set parameter LogFile to value "C:\Projetos\Job_Rotation_Algorithms\Outputs\GurobiLogs\gurobi_log-output-71_wee-c27-CostaMirallesModel-NoExtraConstraint-2.log"
Gurobi Optimizer version 11.0.1 build v11.0.1rc0 (win64 - Windows 10.0 (19045.2))

CPU model: 11th Gen Intel(R) Core(TM) i7-1165G7 @ 2.80GHz, instruction set [SSE2|AVX|AVX2|AVX512]
Thread count: 4 physical cores, 8 logical processors, using up to 1 threads

WLS license 901038 - registered to Bitka Analytics
Optimize a model with 6086 rows, 49279 columns and 1240351 nonzeros
Model fingerprint: 0x03daa59e
Variable types: 2 continuous, 49277 integer (49277 binary)
Coefficient statistics:
  Matrix range     [1e+00, 8e+01]
  Objective range  [1e+00, 1e+00]
  Bounds range     [1e+00, 5e+01]
  RHS range        [1e+00, 5e+01]
Presolve removed 63 rows and 925 columns (presolve time = 5s) ...
Presolve added 1977 rows and 1115 columns
Presolve time: 5.17s
Presolved: 8063 rows, 50394 columns, 389292 nonzeros
Variable types: 0 continuous, 50394 integer (48963 binary)

Root simplex log...

Iteration    Objective       Primal Inf.    Dual Inf.      Time
       0    1.2450000e+03   1.631000e+03   0.000000e+00      8s
    9299    1.5000000e+02   0.000000e+00   0.000000e+00     10s

Root relaxation: objective 1.500000e+02, 9299 iterations, 1.50 seconds (1.86 work units)
Total elapsed time = 10.47s (DegenMoves)

    Nodes    |    Current Node    |     Objective Bounds      |     Work
 Expl Unexpl |  Obj  Depth IntInf | Incumbent    BestBd   Gap | It/Node Time

     0     0  150.00000    0  203          -  150.00000      -     -   11s
     0     0  150.00000    0  314          -  150.00000      -     -   11s
     0     0  150.00000    0  293          -  150.00000      -     -   11s
     0     0  150.00000    0 1231          -  150.00000      -     -   16s
     0     0  150.00000    0 1167          -  150.00000      -     -   17s
     0     0  150.00000    0 1028          -  150.00000      -     -   17s
     0     0  150.00000    0  995          -  150.00000      -     -   17s
     0     0  150.00000    0  990          -  150.00000      -     -   17s
     0     0  150.00000    0  972          -  150.00000      -     -   18s
     0     0  150.00000    0  992          -  150.00000      -     -   18s
     0     0  150.00000    0  995          -  150.00000      -     -   18s
     0     0  150.00000    0  983          -  150.00000      -     -   18s
     0     0  150.00000    0  797          -  150.00000      -     -   18s
     0     0  150.00000    0  787          -  150.00000      -     -   18s
     0     0  150.00000    0  786          -  150.00000      -     -   18s
     0     0  150.00000    0  785          -  150.00000      -     -   18s
     0     0  150.00000    0  803          -  150.00000      -     -   18s
     0     0  150.00000    0  786          -  150.00000      -     -   18s
     0     0  150.00000    0  785          -  150.00000      -     -   18s
     0     0  150.00000    0  180          -  150.00000      -     -   23s
     0     0  150.00000    0  195          -  150.00000      -     -   23s
     0     0  150.00000    0  195          -  150.00000      -     -   23s
     0     0  150.00000    0  201          -  150.00000      -     -   26s
     0     0  150.00000    0  201          -  150.00000      -     -   26s
     0     0  150.00000    0  202          -  150.00000      -     -   26s
     0     0  150.00000    0  202          -  150.00000      -     -   26s
     0     0  150.00000    0  200          -  150.00000      -     -   26s
     0     0  150.00000    0  202          -  150.00000      -     -   26s
     0     0  150.00000    0  201          -  150.00000      -     -   26s
     0     0  150.00000    0  202          -  150.00000      -     -   26s
     0     0  150.00000    0  202          -  150.00000      -     -   26s
     0     0  150.00000    0  221          -  150.00000      -     -   26s
     0     0  150.00000    0  216          -  150.00000      -     -   26s
     0     0  150.00000    0  215          -  150.00000      -     -   26s
     0     0  150.00000    0  216          -  150.00000      -     -   26s
     0     0  150.00000    0  218          -  150.00000      -     -   26s
     0     0  150.00000    0  222          -  150.00000      -     -   29s
     0     0  150.00000    0  429          -  150.00000      -     -   29s
     0     0  150.00000    0 1240          -  150.00000      -     -   31s
     0     0  150.00000    0 1249          -  150.00000      -     -   31s
     0     0  150.00000    0 1207          -  150.00000      -     -   31s
     0     0  150.00000    0 1240          -  150.00000      -     -   32s
     0     0  150.00000    0 1228          -  150.00000      -     -   32s
     0     0  150.00000    0 1228          -  150.00000      -     -   32s
     0     0  150.00000    0 1193          -  150.00000      -     -   32s
     0     0  150.00000    0 1061          -  150.00000      -     -   32s
     0     0  150.00000    0 1052          -  150.00000      -     -   32s
     0     0  150.00000    0 1055          -  150.00000      -     -   32s
     0     0  150.00000    0 1054          -  150.00000      -     -   32s
     0     0  150.00000    0 1113          -  150.00000      -     -   32s
     0     0  150.00000    0 1076          -  150.00000      -     -   32s
     0     0  150.00000    0  214          -  150.00000      -     -   51s
     0     0  150.00000    0  212          -  150.00000      -     -   52s
     0     2  150.00000    0  209          -  150.00000      -     -   63s
     9    11  150.00000    6  239          -  150.00000      -   463   65s
    47    49  150.00000   28  318          -  150.00000      -   360   70s
    86    88  150.00000   50  157          -  150.00000      -   374   75s
    95    91  150.00000   46 1199          -  150.00000      -   447   80s
   117   113  150.00000   60  347          -  150.00000      -   469   85s
   165   156  150.00000   87  353          -  150.00000      -   394   90s
   261   212  150.00000  156  443          -  150.00000      -   284   95s
   314   250  150.00000  191  261          -  150.00000      -   282  100s
   346   276  150.00000  210  364          -  150.00000      -   302  105s
   371   295  149.60703  227  919          -  150.00000      -   314  110s
   397   305  150.00000   43 1427          -  150.00000      -   327  115s
   407   314  150.00000   50  186          -  150.00000      -   345  120s
   469   370  150.00000   91  366          -  150.00000      -   316  125s
   541   403  150.00000   84 1012          -  150.00000      -   300  130s
   610   449  150.00000  132  395          -  150.00000      -   288  135s
   621   451  150.00000   25  212          -  150.00000      -   285  279s
   623   452  150.00000    2  193          -  150.00000      -   284  285s
   624   453  150.00000   38  199          -  150.00000      -   283  290s
   626   454  150.00000   77  253          -  150.00000      -   282  297s
   628   456  150.00000  106  267          -  150.00000      -   282  304s
   629   456  150.00000   78  537          -  150.00000      -   281  305s
   630   457  150.00000   75  211          -  150.00000      -   281  311s
   632   458  150.00000  187  245          -  150.00000      -   280  318s
   633   459  150.00000   98  682          -  150.00000      -   279  320s
   634   460  150.00000   77  260          -  150.00000      -   279  325s
   639   464  150.00000   44  182          -  150.00000      -   593  333s
   640   465  150.00000   19  226          -  150.00000      -   592  338s
   641   466  149.16667  216  722          -  150.00000      -   591  340s
   642   466  150.00000  101  212          -  150.00000      -   590  346s
   644   468  150.00000  213  213          -  150.00000      -   589  353s
   645   468  150.00000  114  710          -  150.00000      -   588  355s
   646   469  150.00000   62  256          -  150.00000      -   587  361s
   648   470  150.00000   72  260          -  150.00000      -   585  367s
   650   472  150.00000  168  232          -  150.00000      -   583  374s
   651   472  150.00000   99  232          -  150.00000      -   582  382s
   652   473  150.00000  127  232          -  150.00000      -   581  387s
   654   476  150.00000   25  513          -  150.00000      -   635  390s
   687   498  150.00000   42  245          -  150.00000      -   607  395s
   770   552  150.00000   84  174          -  150.00000      -   559  400s
   800   571  150.00000   99  275          -  150.00000      -   540  414s
   805   574  150.00000  101  620          -  150.00000      -   538  415s
   847   586  150.00000   35  292          -  150.00000      -   522  421s
   856   592  150.00000   40  394          -  150.00000      -   517  425s
   866   599  150.00000   45  255          -  150.00000      -   513  430s
   937   643  150.00000   81  403          -  150.00000      -   478  435s
  1028   697  150.00000  130  163          -  150.00000      -   447  440s
  1085   732  150.00000  160  582          -  150.00000      -   437  445s
  1089   734  150.00000  162  544          -  150.00000      -   437  450s
  1114   749  150.00000  175  305          -  150.00000      -   443  455s
  1127   749 infeasible  179               -  150.00000      -   441  460s
  1137   743  150.00000  157  250          -  150.00000      -   441  465s
  1173   754  150.00000  156  250          -  150.00000      -   434  470s
  1189   765  150.00000  164  400          -  150.00000      -   448  478s
  1197   766  150.00000  168  549          -  150.00000      -   451  480s
  1217   780  150.00000  179  519          -  150.00000      -   449  485s
  1233   778 infeasible  184               -  150.00000      -   447  490s
  1259   770 infeasible  187               -  150.00000      -   443  495s
  1285   772 infeasible  174               -  150.00000      -   439  500s
  1329   784  150.00000  175  531          -  150.00000      -   433  505s
  1396   802  150.00000  148  280          -  150.00000      -   424  510s
  1431   821  150.00000  168  598          -  150.00000      -   423  515s
  1494   845 infeasible  203               -  150.00000      -   412  520s
  1525   852  150.00000  144  127          -  150.00000      -   409  525s
  1579   878  150.00000  174  384          -  150.00000      -   402  530s
  1645   883  150.00000  136  297          -  150.00000      -   393  535s
  1710   903  150.00000  176  406          -  150.00000      -   385  540s
  1747   915 infeasible  189               -  150.00000      -   381  545s
  1773   913 infeasible  194               -  150.00000      -   380  550s
  1802   917  150.00000  156  414          -  150.00000      -   378  555s
  1872   932  150.00000  154  300          -  150.00000      -   368  560s
  1934   953  150.00000  140  363          -  150.00000      -   364  565s
  1985   981  150.00000  157  409          -  150.00000      -   361  570s
  2021   998  150.00000  172  475          -  150.00000      -   360  575s
  2051  1004  150.00000  192  518          -  150.00000      -   359  580s
  2065  1009  141.40809  196  126          -  150.00000      -   359  585s
  2099  1016 infeasible  208               -  150.00000      -   356  590s
  2161  1063  150.00000  156  440          -  150.00000      -   349  595s
  2219  1092  150.00000  134  338          -  150.00000      -   345  600s
  2287  1144  150.00000  161  344          -  150.00000      -   338  605s
  2333  1164 infeasible  187               -  150.00000      -   335  610s
  2361  1180  150.00000  202  559          -  150.00000      -   335  615s
  2417  1214  150.00000   60  236          -  150.00000      -   331  620s
  2482  1268  150.00000   92  498          -  150.00000      -   324  625s
  2541  1312 infeasible  124               -  150.00000      -   322  630s
  2581  1323  150.00000  138  422          -  150.00000      -   322  635s
  2636  1363  150.00000   37  218          -  150.00000      -   319  640s
  2720  1443  150.00000   85  229          -  150.00000      -   311  645s
  2795  1513  150.00000  126  261          -  150.00000      -   307  650s
  2884  1584  150.00000  165  303          -  150.00000      -   302  655s
  2976  1653 infeasible  214               -  150.00000      -   297  660s
  3050  1703  150.00000   87  273          -  150.00000      -   293  665s
  3135  1781  150.00000  130  337          -  150.00000      -   287  670s
  3226  1861  150.00000  170  403          -  150.00000      -   282  675s
  3295  1914  150.00000  196  301          -  150.00000      -   279  680s
  3357  1955  150.00000  230  378          -  150.00000      -   277  685s
  3452  2025  150.00000   93  257          -  150.00000      -   271  690s
  3532  2080  150.00000  135  459          -  150.00000      -   268  695s
  3582  2106 infeasible  163               -  150.00000      -   268  700s
  3640  2142  150.00000  164  246          -  150.00000      -   267  705s
  3702  2172  150.00000  148  164          -  150.00000      -   265  710s
  3780  2220 infeasible  187               -  150.00000      -   261  715s
  3839  2250  150.00000  174  196          -  150.00000      -   259  720s
  3889  2274  150.00000  153  370          -  150.00000      -   257  725s
  3979  2351  150.00000  198  446          -  150.00000      -   254  730s
  4052  2393  150.00000  176  373          -  150.00000      -   251  735s
  4117  2420 infeasible  214               -  150.00000      -   250  740s
  4167  2454  150.00000  178  218          -  150.00000      -   249  751s
  4171  2454  150.00000  178  221          -  150.00000      -   250  755s
  4175  2456  150.00000  180  305          -  150.00000      -   249  760s
  4206  2463  150.00000  150  241          -  150.00000      -   250  765s
  4299  2516  150.00000  155  362          -  150.00000      -   247  770s
  4345  2538  150.00000  170  454          -  150.00000      -   248  775s
  4441  2580  150.00000  156  409          -  150.00000      -   246  780s
  4532  2633  150.00000  150  311          -  150.00000      -   243  785s
  4592  2672  150.00000  176  493          -  150.00000      -   243  790s
  4666  2713  150.00000  164  345          -  150.00000      -   243  796s
  4728  2748  150.00000  158  309          -  150.00000      -   241  800s
  4798  2794  150.00000  190  396          -  150.00000      -   241  805s
  4879  2830  150.00000  183  406          -  150.00000      -   239  810s
  4961  2876  150.00000  179  685          -  150.00000      -   238  815s
  4984  2880  150.00000  184  413          -  150.00000      -   240  820s
  5079  2933  150.00000  185  292          -  150.00000      -   238  825s
  5101  2943  150.00000  195  245          -  150.00000      -   237  833s
  5137  2964  150.00000  180  500          -  150.00000      -   236  835s
  5210  3004  150.00000  209  249          -  150.00000      -   235  840s
  5274  3047 infeasible  237               -  150.00000      -   235  845s
  5346  3091  150.00000  214  460          -  150.00000      -   234  850s
  5407  3112 infeasible  246               -  150.00000      -   233  855s
  5500  3191  150.00000   90  336          -  150.00000      -   230  860s
  5583  3261  150.00000  133  522          -  150.00000      -   228  865s
  5639  3294 infeasible  167               -  150.00000      -   228  870s
  5755  3376  150.00000  101  293          -  150.00000      -   225  875s
  5831  3441  150.00000  137  485          -  150.00000      -   224  880s
  5898  3490  150.00000  167  363          -  150.00000      -   223  885s
  5945  3501 infeasible  187               -  150.00000      -   222  890s
  6054  3606  150.00000   97  477          -  150.00000      -   221  895s
  6168  3710  150.00000  155  437          -  150.00000      -   218  900s
  6255  3775  150.00000  198  377          -  150.00000      -   216  905s
  6327  3803  150.00000   52  273          -  150.00000      -   214  910s
  6440  3909  150.00000  108  241          -  150.00000      -   213  915s
  6522  3986  150.00000  145  106          -  150.00000      -   212  920s
  6626  4053  150.00000  199  373          -  150.00000      -   211  925s
  6668  4061  150.00000  146  380          -  150.00000      -   211  930s
  6745  4123  150.00000  179  420          -  150.00000      -   210  935s
  6784  4149  150.00000  202  433          -  150.00000      -   210  940s
  6892  4234  150.00000  124  159          -  150.00000      -   208  945s
  6972  4302  150.00000  159  531          -  150.00000      -   208  950s
  7044  4336  150.00000  203  284          -  150.00000      -   207  955s
  7114  4380 infeasible  228               -  150.00000      -   207  960s
  7193  4445  150.00000  105  363          -  150.00000      -   206  965s
  7275  4500  150.00000  137  460          -  150.00000      -   205  970s
  7311  4524  150.00000  161  588          -  150.00000      -   205  987s
  7313  4526  150.00000  159  536          -  150.00000      -   205  990s
  7318  4531  150.00000  164  161          -  150.00000      -   206  995s
  7372  4546  150.00000  155  171          -  150.00000      -   205 1000s
  7437  4580  150.00000  133  272          -  150.00000      -   204 1005s
  7511  4619  150.00000  172  393          -  150.00000      -   203 1010s
  7602  4699  150.00000  116  419          -  150.00000      -   203 1015s
  7700  4787  150.00000  147  498          -  150.00000      -   202 1020s
  7767  4840  150.00000  167  579          -  150.00000      -   202 1025s
  7856  4894  150.00000  108  277          -  150.00000      -   201 1030s
  7933  4954  150.00000  147  174          -  150.00000      -   201 1035s
  8033  5033  150.00000  198  272          -  150.00000      -   199 1040s
  8127  5066  150.00000   78  400          -  150.00000      -   198 1045s
  8255  5168  150.00000  147  381          -  150.00000      -   197 1050s
  8342  5217  150.00000  200  331          -  150.00000      -   196 1055s
  8456  5277  150.00000  165  303          -  150.00000      -   194 1060s
  8600  5391  150.00000  149  417          -  150.00000      -   192 1065s
  8668  5426  150.00000  161  695          -  150.00000      -   192 1070s
  8742  5471 infeasible  204               -  150.00000      -   192 1075s
  8800  5489 infeasible  194               -  150.00000      -   192 1080s
  8964  5602  150.00000  172  385          -  150.00000      -   190 1085s
  9132  5725  150.00000  108  352          -  150.00000      -   188 1090s
  9276  5843  150.00000  171  482          -  150.00000      -   187 1095s
  9371  5886  150.00000  137  342          -  150.00000      -   186 1100s
  9443  5943  150.00000  167  511          -  150.00000      -   186 1105s
  9573  6032  150.00000  129  429          -  150.00000      -   185 1110s
  9654  6086  150.00000  168  518          -  150.00000      -   185 1115s
  9758  6149  150.00000  164  371          -  150.00000      -   184 1120s
  9855  6219  150.00000  212  305          -  150.00000      -   183 1125s
  9940  6260  150.00000  216  285          -  150.00000      -   183 1130s
 10026  6313  150.00000  150  347          -  150.00000      -   182 1135s
 10123  6376  150.00000  150  428          -  150.00000      -   182 1140s
 10202  6424  150.00000  192  561          -  150.00000      -   181 1335s
 10245  6442  150.00000  215  280          -  150.00000      -   181 1340s
 10389  6538  150.00000  150  466          -  150.00000      -   180 1345s
 10446  6569  150.00000  155  257          -  150.00000      -   181 1350s
 10557  6633  150.00000  145  288          -  150.00000      -   180 1355s
 10660  6712  150.00000  180  399          -  150.00000      -   179 1360s
 10729  6743  150.00000  155  366          -  150.00000      -   179 1365s
 10860  6800  150.00000  148  177          -  150.00000      -   178 1370s
 10934  6851 infeasible  184               -  150.00000      -   178 1375s
 11066  6933  150.00000  203  466          -  150.00000      -   177 1380s
 11203  7019  150.00000  165  320          -  150.00000      -   176 1385s
 11336  7087 infeasible  184               -  150.00000      -   175 1390s
 11429  7147  150.00000  186  612          -  150.00000      -   175 1395s
 11474  7149 infeasible  194               -  150.00000      -   176 1400s
 11585  7195  150.00000  134  230          -  150.00000      -   176 1405s
 11688  7276  148.00000  179  482          -  150.00000      -   175 1410s
 11813  7351  150.00000  160  465          -  150.00000      -   174 1415s
 11889  7385 infeasible  194               -  150.00000      -   174 1420s
 11994  7445  150.00000  183  543          -  150.00000      -   174 1425s
 12060  7469 infeasible  190               -  150.00000      -   175 1430s
 12214  7522 infeasible  178               -  150.00000      -   174 1435s
 12354  7594  150.00000  170  360          -  150.00000      -   173 1440s
 12431  7612 infeasible  180               -  150.00000      -   173 1445s
 12570  7694 infeasible  184               -  150.00000      -   173 1450s
 12673  7776  150.00000  171  451          -  150.00000      -   173 1455s
 12750  7815  150.00000  136  118          -  150.00000      -   173 1460s
 12885  7908 infeasible  197               -  150.00000      -   173 1465s
 12975  7949 infeasible  163               -  150.00000      -   172 1470s
 13092  8017 infeasible  142               -  150.00000      -   172 1475s
 13145  8047  150.00000  199  383          -  150.00000      -   172 1480s
 13313  8153  150.00000  132  330          -  150.00000      -   171 1485s
 13412  8229  150.00000  178  317          -  150.00000      -   171 1490s
 13482  8280  150.00000  160  399          -  150.00000      -   171 1495s
 13535  8321  150.00000  108  376          -  150.00000      -   170 1506s
 13540  8326  150.00000  110  506          -  150.00000      -   170 1510s
 13629  8391  150.00000  153  462          -  150.00000      -   170 1515s
 13777  8503 infeasible  145               -  150.00000      -   169 1520s
 13900  8582  150.00000  159  535          -  150.00000      -   169 1525s
 13957  8607  150.00000  133  575          -  150.00000      -   169 1530s
 14091  8695  150.00000  134  111          -  150.00000      -   169 1535s
 14164  8747  150.00000  174  447          -  150.00000      -   169 1540s
 14215  8759 infeasible  200               -  150.00000      -   169 1545s
 14327  8829  150.00000  197  203          -  150.00000      -   168 1550s
 14446  8901  150.00000  152  620          -  150.00000      -   168 1555s
 14491  8938  150.00000  184  465          -  150.00000      -   168 1560s
 14502  8941 infeasible  184               -  150.00000      -   169 1565s
 14569  8969  150.00000  158  512          -  150.00000      -   169 1570s
 14694  9040  150.00000  145  536          -  150.00000      -   169 1575s
 14801  9092  150.00000  108  298          -  150.00000      -   169 1580s
 14926  9190  150.00000  156  388          -  150.00000      -   169 1585s
 15015  9227 infeasible  185               -  150.00000      -   168 1590s
 15110  9255 infeasible  211               -  150.00000      -   168 1595s
 15235  9340  150.00000  144  149          -  150.00000      -   168 1601s
 15284  9370  150.00000  164  406          -  150.00000      -   167 1605s
 15303  9375  150.00000  173  271          -  150.00000      -   167 1614s
 15329  9378  150.00000  178  240          -  150.00000      -   167 1615s
 15428  9423  150.00000  160  508          -  150.00000      -   167 1620s
 15592  9546  150.00000  139  461          -  150.00000      -   166 1625s
 15697  9582  150.00000  155  582          -  150.00000      -   166 1630s
 15858  9683  150.00000   92  163          -  150.00000      -   165 1635s
 15998  9799  150.00000  152  558          -  150.00000      -   165 1640s
 16110  9875  150.00000  138  219          -  150.00000      -   164 1645s
 16302 10022 infeasible  144               -  150.00000      -   164 1650s
 16390 10057 infeasible  168               -  150.00000      -   164 1655s
 16495 10096 infeasible  188               -  150.00000      -   163 1660s
 16620 10177  150.00000  128  346          -  150.00000      -   163 1665s
 16819 10343  150.00000  126  363          -  150.00000      -   162 1670s
 17033 10501  150.00000  152  457          -  150.00000      -   161 1675s
 17168 10571  150.00000  154  167          -  150.00000      -   161 1680s
 17268 10621  150.00000  175  325          -  150.00000      -   160 1685s
 17354 10666  150.00000  169  258          -  150.00000      -   160 1690s
 17461 10715  150.00000  183  610          -  150.00000      -   160 1695s
 17555 10745  150.00000  165  448          -  150.00000      -   160 1700s
 17750 10842  150.00000  129  510          -  150.00000      -   159 1705s
 17825 10896  150.00000  158  471          -  150.00000      -   159 1710s
 17942 10962 infeasible  164               -  150.00000      -   159 1715s
 18016 11003  150.00000  154  167          -  150.00000      -   159 1720s
 18058 11032  150.00000  172  216          -  150.00000      -   160 1737s
 18063 11029  150.00000   97  239          -  150.00000      -   160 1740s
 18068 11034  150.00000  100  389          -  150.00000      -   160 1745s
 18118 11080  150.00000  122  447          -  150.00000      -   159 1750s
 18222 11123  150.00000  166  465          -  150.00000      -   159 1755s
 18355 11181  150.00000  173  434          -  150.00000      -   159 1760s
 18511 11273 infeasible  162               -  150.00000      -   158 1765s
 18689 11407  150.00000  104  397          -  150.00000      -   158 1770s
 18814 11499  150.00000  148  569          -  150.00000      -   158 1775s
 19034 11628  150.00000   95  199          -  150.00000      -   157 1780s
 19225 11785  150.00000  117  358          -  150.00000      -   156 1785s
 19380 11878  150.00000  168  560          -  150.00000      -   155 1790s
 19469 11916  150.00000  125  361          -  150.00000      -   155 1795s
 19600 11992  150.00000  120  452          -  150.00000      -   155 1800s
 19773 12126  150.00000  143  479          -  150.00000      -   155 1805s
 19890 12198  150.00000  128  502          -  150.00000      -   155 1810s
 20016 12293  150.00000  191  382          -  150.00000      -   154 1815s
 20059 12314  150.00000  207  450          -  150.00000      -   155 1820s
 20216 12404  150.00000  143  345          -  150.00000      -   154 1825s
 20326 12468  150.00000  149  501          -  150.00000      -   155 1830s
 20384 12503 infeasible  130               -  150.00000      -   155 1835s
 20404 12517  150.00000  137  314          -  150.00000      -   155 1845s
 20581 12624  150.00000  100  233          -  150.00000      -   154 1850s
 20792 12782  150.00000  158  290          -  150.00000      -   154 1855s
 20884 12825 infeasible  200               -  150.00000      -   154 1860s
 20987 12884  150.00000  184  115          -  150.00000      -   154 1865s
 21127 12939  150.00000  201  469          -  150.00000      -   153 1870s
 21281 13010  150.00000  172  344          -  150.00000      -   153 1875s
 21434 13066  150.00000  168  264          -  150.00000      -   152 1880s
 21735 13166  150.00000  220  108          -  150.00000      -   151 1885s
 21929 13252  150.00000  225  146          -  150.00000      -   150 1890s
 22144 13306 infeasible  237               -  150.00000      -   149 1895s
 22410 13364  150.00000  229  169          -  150.00000      -   148 1900s
 22643 13466  150.00000  216  239          -  150.00000      -   147 1905s
 22830 13566 infeasible  232               -  150.00000      -   146 1910s
 23054 13639 infeasible  238               -  150.00000      -   146 1915s
 23262 13743  150.00000  233  297          -  150.00000      -   145 1920s
 23473 13833  150.00000  217  242          -  150.00000      -   144 1925s
 23611 13872 infeasible  232               -  150.00000      -   144 1930s
 23768 13925  148.89706  228  314          -  150.00000      -   144 1935s
 23928 13964  146.04585  231  365          -  150.00000      -   143 1940s
 24125 14029  145.19572  225  287          -  150.00000      -   143 1945s
 24292 14091  150.00000  221  264          -  150.00000      -   142 1950s
 24496 14158  150.00000  238  224          -  150.00000      -   142 1955s
 24688 14206  149.36908  225  354          -  150.00000      -   141 1960s
 24874 14258  150.00000  223  204          -  150.00000      -   141 1965s
 25040 14330  150.00000  222  232          -  150.00000      -   140 1970s
 25194 14376  150.00000  222  203          -  150.00000      -   140 1975s
 25377 14438 infeasible  237               -  150.00000      -   140 1980s
 25505 14474 infeasible  250               -  150.00000      -   139 1990s
 25661 14498  147.73946  226  248          -  150.00000      -   139 1995s
 25818 14568 infeasible  238               -  150.00000      -   139 2000s
 26027 14624 infeasible  241               -  150.00000      -   138 2005s
 26191 14662 infeasible  235               -  150.00000      -   138 2010s
 26350 14701  146.56009  227  209          -  150.00000      -   138 2015s
 26529 14773  150.00000  228  176          -  150.00000      -   137 2020s
 26699 14819  146.87487  228  245          -  150.00000      -   137 2025s
 26901 14886  149.00000  229  125          -  150.00000      -   137 2030s
 27102 14933  150.00000  224  163          -  150.00000      -   136 2035s
 27255 14954  146.43774  236  188          -  150.00000      -   136 2040s
 27432 15003  150.00000  174  170          -  150.00000      -   136 2045s
 27630 15071 infeasible  209               -  150.00000      -   135 2050s
 27825 15151  150.00000  226  228          -  150.00000      -   135 2055s
 28004 15219 infeasible  243               -  150.00000      -   135 2060s
 28239 15287  148.31653  229  228          -  150.00000      -   134 2065s
 28484 15371  150.00000  229  179          -  150.00000      -   133 2070s
 28711 15412  147.72785  226  197          -  150.00000      -   133 2075s
 28965 15470  142.06493  232  237          -  150.00000      -   132 2080s
 29180 15515  150.00000  235  300          -  150.00000      -   132 2085s
 29222 15528  144.15552  229  182          -  150.00000      -   132 2098s
 29235 15527  143.26334  231  171          -  150.00000      -   132 2100s
 29302 15551 infeasible  222               -  150.00000      -   132 2105s
 29474 15584 infeasible  229               -  150.00000      -   131 2110s
*29478 15575             230     134.0000000  150.00000  11.9%   131 2110s
H29482 15535                     139.0000000  150.00000  7.91%   131 2111s
H29482 15391                     142.0000000  150.00000  5.63%   131 2112s
 29528 15399  150.00000  237  149  142.00000  150.00000  5.63%   131 2115s
H29560 14879                     145.0000000  150.00000  3.45%   131 2119s
H29573 14716                     146.0000000  150.00000  2.74%   131 2121s
H29586 14571                     147.0000000  150.00000  2.04%   131 2122s
H29601 14264                     148.0000000  150.00000  1.35%   131 2124s
 29603 14264 infeasible  222       148.00000  150.00000  1.35%   131 2125s
H29628 13760                     149.0000000  150.00000  0.67%   131 2128s
 29630 13760  150.00000  108  212  149.00000  150.00000  0.67%   131 2141s
 29632 13761  150.00000  188  194  149.00000  150.00000  0.67%   131 2147s
 29633 13762  150.00000  154  220  149.00000  150.00000  0.67%   131 2151s
 29635 13763  150.00000  158  213  149.00000  150.00000  0.67%   131 2158s
 29636 13764  150.00000  178  596  149.00000  150.00000  0.67%   131 2160s
 29637 13765  150.00000   92  261  149.00000  150.00000  0.67%   131 2166s
H29638 13076                     150.0000000  150.00000  0.00%   131 2173s

Cutting planes:
  Gomory: 18
  Cover: 286
  Implied bound: 7
  Clique: 26
  MIR: 22
  StrongCG: 35
  Flow cover: 79
  GUB cover: 3
  Zero half: 45
  RLT: 2
  Relax-and-lift: 33

Explored 29638 nodes (4316989 simplex iterations) in 2173.49 seconds (1534.05 work units)
Thread count was 1 (of 8 available processors)

Solution count 9: 150 149 148 ... 134

Optimal solution found (tolerance 1.00e-03)
Best objective 1.500000000000e+02, best bound 1.500000000000e+02, gap 0.0000%
